 7 10 3800
 100 600 1200 2400 500 2000 500
 8 12 13 64 22 41 2
 8 12 13 75 22 41 2
 3 6 4 18 6 4 2
 5 10 8 32 6 12 2
 5 13 8 42 6 20 2
 5 13 8 48 6 20 0
 0 0 0 0 8 0 2
 3 0 4 0 8 0 2
 3 2 4 0 8 4 2
 3 2 4 8 8 4 2
 80 96 20 36 44 48 10 18 22 24
